HUN,8,6,284
3,22,5,26,4,29,1,26,0,25,2,30
2,26,4,27,0,26,1,25,3,23,5,25
1,23,5,30,3,26,2,26,4,22,0,21
4,28,0,27,3,29,1,21,2,26,5,28
0,22,4,24,1,28,3,21,2,24,5,24
1,26,0,21,4,23,3,23,5,22,2,23
5,27,0,22,3,28,1,22,4,27,2,21
2,22,3,30,1,25,5,22,0,30,4,28
